qbf_easy_train/easy_908_UNSAT.qdimacs
p cnf 31 85
a 10 7 0
e 1 2 3 4 5 6 8 9 11 12 13 14 15 16 17 18 19 20 21 22 23 24 25 26 27 28 29 30 31 0
4 2 0
4 -3 0
-2 3 -4 0
6 -4 0
6 -5 0
4 5 -6 0
-6 2 -7 0
6 -2 -7 0
-6 -2 7 0
6 2 7 0
1 7 -8 0
-1 -7 -8 0
1 -7 8 0
-1 7 8 0
10 -8 0
10 9 0
8 -9 -10 0
11 1 0
11 1 0
-1 -11 0
12 9 0
12 1 0
-9 -1 -12 0
13 11 0
13 -12 0
-11 12 -13 0
-15 -14 0
-15 -9 0
14 9 15 0
-16 15 0
-16 1 0
-15 -1 16 0
13 -16 -17 0
-13 16 -17 0
13 16 17 0
-13 -16 17 0
-10 17 -18 0
10 -17 -18 0
-10 -17 18 0
10 17 18 0
20 -12 0
20 4 0
12 -4 -20 0
-12 20 -21 0
12 -20 -21 0
-12 -20 21 0
12 20 21 0
22 7 0
22 -21 0
-7 21 -22 0
23 -19 0
23 -22 0
19 22 -23 0
24 -18 0
24 23 0
18 -23 -24 0
-26 -25 0
-26 -9 0
25 9 26 0
27 11 0
27 1 0
-11 -1 -27 0
-28 26 0
-28 27 0
-26 -27 28 0
9 25 -29 0
-9 -25 -29 0
9 -25 29 0
-9 25 29 0
-28 29 -30 0
28 -29 -30 0
-28 -29 30 0
28 29 30 0
-31 24 0
-31 -30 0
-24 30 31 0
-21 6 5 4 -2 17 -13 27 0
-3 23 -17 19 21 0
-31 -22 -29 0
-15 5 13 0
-16 1 -20 30 10 0
-17 -22 -18 14 2 7 0
-2 26 -21 7 -19 -29 0
5 -9 -28 0
31 0
