sat_easy_train/easy_908_UNSAT.dimacs
p cnf 121 391
-4 2 0
-4 -3 0
-2 3 4 0
-5 6 -7 0
5 -6 -7 0
-5 -6 7 0
5 6 7 0
-4 7 -8 0
4 -7 -8 0
-4 -7 8 0
4 7 8 0
-9 -1 0
-9 -8 0
1 8 9 0
13 -11 0
13 12 0
11 -12 -13 0
14 10 0
14 13 0
-10 -13 -14 0
15 6 0
15 3 0
-6 -3 -15 0
-16 12 0
-16 -15 0
-12 15 16 0
18 -11 0
18 -17 0
11 17 -18 0
20 -18 0
20 19 0
18 -19 -20 0
21 20 0
21 20 0
-20 -21 0
22 16 0
22 -21 0
-16 21 -22 0
-14 -22 -23 0
14 22 -23 0
-14 22 23 0
14 -22 23 0
-24 -2 -25 0
24 2 -25 0
-24 2 25 0
24 -2 25 0
-26 4 0
-26 1 0
-4 -1 26 0
-27 -7 0
-27 -26 0
7 26 27 0
28 -27 0
28 -18 0
27 18 -28 0
29 11 0
29 -10 0
-11 10 -29 0
-30 -29 0
-30 -7 0
29 7 30 0
31 -26 0
31 -30 0
26 30 -31 0
-32 -28 0
-32 -31 0
28 31 32 0
-33 25 0
-33 32 0
-25 -32 33 0
23 33 -34 0
-23 -33 -34 0
23 -33 34 0
-23 33 34 0
35 -19 0
35 -10 0
19 10 -35 0
36 -34 0
36 -35 0
34 35 -36 0
-37 -25 0
-37 26 0
25 -26 37 0
-38 -39 -40 0
38 39 -40 0
-38 39 40 0
38 -39 40 0
41 -37 0
41 40 0
37 -40 -41 0
-42 36 0
-42 -41 0
-36 41 42 0
-43 -9 0
-43 42 0
9 -42 43 0
-44 -13 0
-44 -15 0
13 15 44 0
-45 29 0
-45 -27 0
-29 27 45 0
46 -44 0
46 45 0
44 -45 -46 0
47 -43 0
47 -46 0
43 46 -47 0
48 12 0
48 26 0
-12 -26 -48 0
49 -38 0
49 -29 0
38 29 -49 0
-50 -48 0
-50 49 0
48 -49 50 0
-51 17 0
-51 24 0
-17 -24 51 0
52 51 0
52 -27 0
-51 27 -52 0
53 -49 0
53 29 0
49 -29 -53 0
54 -52 0
54 -53 0
52 53 -54 0
1 -4 -55 0
-1 4 -55 0
1 4 55 0
-1 -4 55 0
-56 -54 0
-56 -55 0
54 55 56 0
15 31 -57 0
-15 -31 -57 0
15 -31 57 0
-15 31 57 0
-57 29 -58 0
57 -29 -58 0
-57 -29 58 0
57 29 58 0
59 29 0
59 7 0
-29 -7 -59 0
-59 6 -60 0
59 -6 -60 0
-59 -6 60 0
59 6 60 0
-58 -60 -61 0
58 60 -61 0
-58 60 61 0
58 -60 61 0
-62 -56 0
-62 -61 0
56 61 62 0
13 -30 -63 0
-13 30 -63 0
13 30 63 0
-13 -30 63 0
64 -63 0
64 -2 0
63 2 -64 0
-65 62 0
-65 -64 0
-62 64 65 0
-66 -50 0
-66 65 0
50 -65 66 0
68 -67 0
68 59 0
67 -59 -68 0
-70 -69 0
-70 -1 0
69 1 70 0
-68 70 -71 0
68 -70 -71 0
-68 -70 71 0
68 70 71 0
-72 -66 0
-72 71 0
66 -71 72 0
-58 18 -73 0
58 -18 -73 0
-58 -18 73 0
58 18 73 0
-74 -13 0
-74 -39 0
13 39 74 0
-75 20 0
-75 74 0
-20 -74 75 0
-21 52 -76 0
21 -52 -76 0
-21 -52 76 0
21 52 76 0
75 76 -77 0
-75 -76 -77 0
75 -76 77 0
-75 76 77 0
-78 51 0
-78 -24 0
-51 24 78 0
-79 29 0
-79 -25 0
-29 25 79 0
80 4 0
80 3 0
-4 -3 -80 0
81 -79 0
81 80 0
79 -80 -81 0
-82 81 0
-82 -5 0
-81 5 82 0
83 -19 0
83 -10 0
19 10 -83 0
-84 -83 0
-84 30 0
83 -30 84 0
-59 84 -85 0
59 -84 -85 0
-59 -84 85 0
59 84 85 0
86 -82 0
86 85 0
82 -85 -86 0
87 -78 0
87 86 0
78 -86 -87 0
-88 77 0
-88 -87 0
-77 87 88 0
-90 79 0
-90 89 0
-79 -89 90 0
91 -1 0
91 11 0
1 -11 -91 0
91 59 -92 0
-91 -59 -92 0
91 -59 92 0
-91 59 92 0
93 -26 0
93 24 0
26 -24 -93 0
-94 15 0
-94 15 0
-15 94 0
95 51 0
95 -94 0
-51 94 -95 0
-95 96 0
95 96 0
97 93 0
97 -96 0
-93 96 -97 0
98 -92 0
98 97 0
92 -97 -98 0
99 -90 0
99 98 0
90 -98 -99 0
-100 15 0
-100 52 0
-15 -52 100 0
-101 99 0
-101 -100 0
-99 100 101 0
18 24 -102 0
-18 -24 -102 0
18 -24 102 0
-18 24 102 0
103 -69 0
103 -49 0
69 49 -103 0
-104 7 0
-104 -83 0
-7 83 104 0
-105 104 0
-105 -49 0
-104 49 105 0
-106 -103 0
-106 105 0
103 -105 106 0
32 -106 -107 0
-32 106 -107 0
32 106 107 0
-32 -106 107 0
108 5 0
108 -104 0
-5 104 -108 0
-16 39 -109 0
16 -39 -109 0
-16 -39 109 0
16 39 109 0
-110 -108 0
-110 109 0
108 -109 110 0
-111 84 0
-111 -11 0
-84 11 111 0
-112 110 0
-112 -111 0
-110 111 112 0
-109 12 -113 0
109 -12 -113 0
-109 -12 113 0
109 12 113 0
-114 -112 0
-114 -113 0
112 113 114 0
115 107 0
115 -114 0
-107 114 -115 0
116 102 0
116 -115 0
-102 115 -116 0
117 101 0
117 -116 0
-101 116 -117 0
-118 88 0
-118 117 0
-88 -117 118 0
-73 -118 -119 0
73 118 -119 0
-73 118 119 0
73 -118 119 0
-72 119 -120 0
72 -119 -120 0
-72 -119 120 0
72 119 120 0
47 -120 -121 0
-47 120 -121 0
47 120 121 0
-47 -120 121 0
46 -47 -19 62 0
102 -27 0
81 38 93 -75 95 0
106 18 45 91 0
20 78 -38 0
31 3 0
-92 -80 -13 41 114 -88 0
63 -5 0
41 118 101 -87 -11 0
102 -89 -12 0
-51 -98 -104 38 74 0
-108 -37 -121 0
78 8 53 89 -118 0
-2 12 -79 44 -60 -82 0
63 113 0
21 -75 -23 36 0
44 -115 107 -96 -3 -86 0
-97 -102 -29 0
13 -1 -6 -93 0
-115 -16 55 65 -121 0
-90 -62 0
114 -83 109 -103 0
-68 55 -104 58 77 0
9 19 25 0
81 -90 8 -116 -102 0
-89 120 99 86 -81 -42 0
106 2 -81 31 1 -110 0
-92 15 -12 -38 25 0
-88 120 -23 0
-30 90 0
75 -65 58 90 47 30 0
90 101 0
110 43 112 0
59 -18 -40 0
40 76 -117 0
-101 -37 -32 -97 0
43 -71 97 92 -60 0
-43 51 23 0
42 -19 -107 58 47 0
-32 82 0
-27 -110 83 72 -75 0
-70 -14 0
7 113 4 107 0
-68 51 -119 0
21 -75 106 0
6 -71 90 0
9 73 26 0
-44 89 70 0
-115 -67 77 117 -112 0
-14 78 -37 -75 0
11 -9 -13 0
121 0
